NAME : X-n120-50-k3
COMMENT : "Generated by Queiroga, Frota, Sadykov, Subramanian, Uchoa and Vidal (2019)" 
TYPE : CVRP
DIMENSION : 120
EDGE_WEIGHT_TYPE : EUC_2D
CAPACITY : 21
NODE_COORD_SECTION
1 -1 0 0
2 0 927 318
3 0 319 475
4 0 471 281
5 0 894 615
6 0 712 832
7 0 677 210
8 0 336 967
9 0 490 360
10 0 367 685
11 0 153 169
12 0 799 63
13 0 247 455
14 0 492 585
15 0 131 701
16 0 309 721
17 0 210 256
18 0 511 753
19 0 447 796
20 0 394 856
21 0 131 13
22 0 181 425
23 0 892 585
24 0 161 651
25 0 964 365
26 0 82 353
27 0 706 842
28 0 793 53
29 0 364 841
30 0 126 306
31 0 86 477
32 0 51 277
33 0 192 360
34 0 52 568
35 0 682 45
36 0 778 300
37 0 10 737
38 0 928 438
39 0 95 240
40 0 391 368
41 0 586 170
42 0 645 731
43 0 381 396
44 0 387 491
45 0 388 753
46 0 429 276
47 0 547 989
48 0 840 945
49 0 88 969
50 0 331 421
51 0 55 132
52 0 904 771
53 0 63 190
54 0 731 528
55 0 320 84
56 0 308 276
57 0 891 182
58 0 836 473
59 0 209 741
60 0 864 533
61 0 852 600
62 1 180 150
63 1 544 140
64 1 956 881
65 1 432 487
66 1 129 968
67 1 597 962
68 1 51 423
69 1 827 605
70 1 776 619
71 1 354 297
72 1 311 129
73 1 552 106
74 1 24 318
75 1 148 944
76 1 502 869
77 1 396 492
78 1 815 500
79 1 425 338
80 1 178 511
81 1 168 274
82 1 775 603
83 1 481 465
84 1 281 777
85 1 216 211
86 1 784 740
87 1 127 992
88 1 544 117
89 1 92 170
90 1 846 755
91 1 614 326
92 1 180 372
93 1 720 252
94 1 262 291
95 1 171 186
96 1 868 613
97 1 291 119
98 1 427 974
99 1 481 557
100 1 403 645
101 1 819 502
102 1 915 919
103 1 581 85
104 1 527 743
105 1 953 893
106 1 955 912
107 1 269 924
108 1 216 84
109 1 601 952
110 1 441 439
111 1 170 949
112 1 614 92
113 1 439 212
114 1 413 509
115 1 545 336
116 1 50 806
117 1 166 86
118 1 658 870
119 1 122 511
120 1 178 170
DEMAND_SECTION
1 0
2 1
3 1
4 1
5 1
6 1
7 1
8 1
9 1
10 1
11 1
12 1
13 1
14 1
15 1
16 1
17 1
18 1
19 1
20 1
21 1
22 1
23 1
24 1
25 1
26 1
27 1
28 1
29 1
30 1
31 1
32 1
33 1
34 1
35 1
36 1
37 1
38 1
39 1
40 1
41 1
42 1
43 1
44 1
45 1
46 1
47 1
48 1
49 1
50 1
51 1
52 1
53 1
54 1
55 1
56 1
57 1
58 1
59 1
60 1
61 1
62 1
63 1
64 1
65 1
66 1
67 1
68 1
69 1
70 1
71 1
72 1
73 1
74 1
75 1
76 1
77 1
78 1
79 1
80 1
81 1
82 1
83 1
84 1
85 1
86 1
87 1
88 1
89 1
90 1
91 1
92 1
93 1
94 1
95 1
96 1
97 1
98 1
99 1
100 1
101 1
102 1
103 1
104 1
105 1
106 1
107 1
108 1
109 1
110 1
111 1
112 1
113 1
114 1
115 1
116 1
117 1
118 1
119 1
120 1
DEPOT_SECTION
1
-1
EOF
